# Objective value = 2.3621599999999985e+03
I_0_0 621
I_0_1 783
I_0_2 693
I_0_3 9.2699999999999477e+02
I_1_0 38
I_1_1 19
I_1_2 3.8000000000000007e+01
I_1_3 1.9000000000000007e+01
I_2_0 94
I_2_1 47
I_2_2 9.4000000000000071e+01
I_2_3 4.7000000000000071e+01
I_3_0 144
I_3_1 144
I_3_2 72
I_3_3 0
I_4_0 81
I_4_1 0
I_4_2 81
I_4_3 0
I_5_0 30
I_5_1 15
I_5_2 3.0000000000000007e+01
I_5_3 1.5000000000000007e+01
q_1_0 0
q_1_1 38
q_1_2 0
q_2_0 0
q_2_1 94
q_2_2 0
q_3_0 72
q_3_1 0
q_3_2 0
q_4_0 0
q_4_1 162
q_4_2 0
q_5_0 0
q_5_1 30
q_5_2 0
y_0_0 1
y_0_1 1
y_0_2 0
y_1_0 0
y_1_1 1
y_1_2 0
y_2_0 0
y_2_1 1
y_2_2 0
y_3_0 1
y_3_1 0
y_3_2 0
y_4_0 0
y_4_1 1
y_4_2 0
y_5_0 0
y_5_1 1
y_5_2 0
x_0_1_0 0
x_0_1_1 1
x_0_1_2 0
x_0_2_0 0
x_0_2_1 0
x_0_2_2 0
x_0_3_0 2
x_0_3_1 0
x_0_3_2 0
x_0_4_0 0
x_0_4_1 1
x_0_4_2 0
x_0_5_0 0
x_0_5_1 0
x_0_5_2 0
x_1_2_0 0
x_1_2_1 1
x_1_2_2 0
x_1_3_0 0
x_1_3_1 0
x_1_3_2 0
x_1_4_0 0
x_1_4_1 0
x_1_4_2 0
x_1_5_0 0
x_1_5_1 0
x_1_5_2 0
x_2_3_0 0
x_2_3_1 0
x_2_3_2 0
x_2_4_0 0
x_2_4_1 0
x_2_4_2 0
x_2_5_0 0
x_2_5_1 1
x_2_5_2 0
x_3_4_0 0
x_3_4_1 0
x_3_4_2 0
x_3_5_0 0
x_3_5_1 0
x_3_5_2 0
x_4_5_0 0
x_4_5_1 1
x_4_5_2 0
